generated by phonopy
   1.0
     3.3233430609575230    0.0000000000000000    0.0000000000000000
    -1.6616715304787615    2.8780995162799510    0.0000000000000000
     0.0000000000000000    0.0000000000000000   39.9999999116339637
W Se Mo
   1    4    1
Direct
  0.6666666666666666  0.3333333333333333  0.7551042030166925
  0.6666666666666666  0.3333333333333333  0.9585948483162808
  0.0000000000000000  0.0000000000000000  0.7133714496651961
  0.0000000000000000  0.0000000000000000  0.7967692408998203
  0.6666666666666666  0.3333333333333333  0.8752886384852373
  0.0000000000000000  0.0000000000000000  0.9169322639868226
