created from ph3/ab.in
1.0
 3.1587851637634232    0.0000000000000000    0.0000000000000000 
-1.5793925818817116    2.7355881969165128    0.0000000000000000 
 0.0000000000000000    0.0000000000000000   39.6935557583535825 
W S Mo
1 4 1
Direct
0.3333333333333333  0.6666666666666666  0.2323865532099999
0.0000000000000000  0.0000000000000000  0.1926813290999999  
0.3333333333333333  0.6666666666666666  0.1175685269000000  
0.3333333333333333  0.6666666666666666  0.0385811560880000  
0.0000000000000000  0.0000000000000000  0.2721288921899999  
0.0000000000000000  0.0000000000000000  0.0780907487920000  

