#Definition of lattice parameters
#********************************
    acell      1.8826464766E+00  1.8826464766E+00  1.8826464766E+00 Bohr
    rprim      0.0000000000E+00  2.7343639568E+00  2.7343639568E+00
               2.7343639568E+00  0.0000000000E+00  2.7343639568E+00
               2.7343639568E+00  2.7343639568E+00  0.0000000000E+00
                      
#Definition of atomic positions and types
#*************************************
   spgroup     227
   brvltt      -1
   spgaxor     1
   natom       2
   ntypat      1
#              Si
   znucl        14
   typat       1 1
   xred      7.5000000000E-01  7.5000000000E-01  7.5000000000E-01
             5.0000000000E-01  5.0000000000E-01  5.0000000000E-01


