Si
   1.0
   0.00000000000 2.72411996749 2.72411996749
   2.72411996749 0.00000000000 2.72411996749
   2.72411996749 2.72411996749 0.00000000000
 Si
  2
Direct
    0.75000000000000E+00     0.75000000000000E+00     0.75000000000000E+00
    0.50000000000000E+00     0.50000000000000E+00     0.50000000000000E+00

